33D32945 STP File, STP Format Version 1.0

SECTION Comments
Name "cube_n10_d2_s20"
Problem "Euclidean Steiner Tree Problem"
Remark "Generated with STPGenerator. 2 dimensions."
END

SECTION Graph
Nodes 10
END

SECTION Coordinates
DD 0 0.1488122675 0.7401193766
DD 1 0.5311698176 0.3798184727
DD 2 0.6551358368 0.3903584468
DD 3 0.6938135543 0.3702549456
DD 4 0.5785871486 0.6617850073
DD 5 0.1534811920 0.2006002349
DD 6 0.4885317048 0.9929940151
DD 7 0.7874475535 0.1478928184
DD 8 0.0819520862 0.2319531549
DD 9 0.3117739127 0.1775910422
END
